centroides = 0;
nNurses = 178;
hours = 67;
demand = [27 32 38 12 42 43 0 20 8 20 4 41 43 9 5 21 33 13 29 33 8 20 41 7 19 21 3 44 11 26 41 0 34 25 42 33 7 1 38 16 25 9 27 23 41 12 41 9 37 10 42 32 9 35 41 33 19 9 9 24 15 9 31 7 5 38 3];
minHours = 19;
maxHours = 22;
maxConsec = 15;
maxPresence = 31;